(declare-const |havoc:15:160:414:431:448:467| Int)
(declare-const __VERIFIER_assert__cond___49 Int)
(declare-const |__tmp_3137_1':376:405:422:439:456:475| Int)
(declare-const havoc Int)
(declare-const |havoc:24:163:417:434:451:470| Int)
(declare-const |__tmp_3137_0':377:406:423:440:457:476| Int)
(declare-const |havoc:6:157:411:428:445:464| Int)
(declare-const __VERIFIER_assert__cond___50 Int)
(declare-const |K:401:402:419:436:453:472| Int)
(declare-const |__VERIFIER_assert__cond___50':383:409:426:443:460:479| Int)
(declare-const |havoc:27:164:418:435:452:471| Int)
(declare-const |main____CPAchecker_TMP_0___8':381:410:427:444:461:480| Int)
(declare-const |havoc:34:165:375:462:481| Int)
(declare-const |main__t':378:404:421:438:455:474| Int)
(declare-const |main____CPAchecker_TMP_0___7':379:408:425:442:459:478| Int)
(declare-const |__VERIFIER_assert__cond___49':382:407:424:441:458:477| Int)
(declare-const main____CPAchecker_TMP_0___8 Int)
(declare-const |havoc:12:159:413:430:447:466| Int)
(declare-const |havoc:18:161:415:432:449:468| Int)
(declare-const |main____CPAchecker_TMP_1___7':380:403:420:437:454:473| Int)
(declare-const |havoc:2:156:463| Int)
(declare-const |havoc:9:158:412:429:446:465| Int)
(declare-const |havoc:21:162:416:433:450:469| Int)
(assert (and (<= (+ (- havoc) 1) 0) (not (= (+ (- havoc) 1) 0))
               (= |havoc:2:156:463| 0)
               (not (= (ite (<= (+ (- havoc) 1) 0) 1 0) 0))
               (not (= (+ (- havoc) 2) 0))
               (= |havoc:6:157:411:428:445:464| 0)
               (not (= (ite (<= (+ (- havoc) 2) 0) 1 0) 0))
               (not (= (+ (- havoc) 3) 0))
               (= |havoc:9:158:412:429:446:465| 0)
               (not (= (ite (<= (+ (- havoc) 3) 0) 1 0) 0))
               (not (= (+ (- havoc) 4) 0))
               (= |havoc:12:159:413:430:447:466| 0)
               (not (= (ite (<= (+ (- havoc) 4) 0) 1 0) 0))
               (not (= (+ (- havoc) 5) 0))
               (= |havoc:15:160:414:431:448:467| 0)
               (not (= (ite (<= (+ (- havoc) 5) 0) 1 0) 0))
               (not (= (+ (- havoc) 6) 0))
               (= |havoc:18:161:415:432:449:468| 0)
               (not (= (ite (<= (+ (- havoc) 6) 0) 1 0) 0))
               (not (= (+ (- havoc) 7) 0))
               (= |havoc:21:162:416:433:450:469| 0)
               (not (= (ite (<= (+ (- havoc) 7) 0) 1 0) 0))
               (not (= (+ (- havoc) 8) 0))
               (= |havoc:24:163:417:434:451:470| 0)
               (not (= (ite (<= (+ (- havoc) 8) 0) 1 0) 0))
               (not (= (+ (- havoc) 9) 0))
               (= |havoc:27:164:418:435:452:471| 0)
               (not (= (ite (<= (+ (- havoc) 9) 0) 1 0) 0))
               (or (not (and (<= (- |K:401:402:419:436:453:472|) 0)
                               (<= |K:401:402:419:436:453:472| 0)))
                     (= (+ |main____CPAchecker_TMP_1___7':380:403:420:437:454:473|
                             (- |K:401:402:419:436:453:472|) -8) 0))
               (or (not (<= (+ (- |K:401:402:419:436:453:472|) 1) 0))
                     (= (+ |main____CPAchecker_TMP_1___7':380:403:420:437:454:473|
                             (- |K:401:402:419:436:453:472|) -7) 0))
               (or (not (and (<= (- |K:401:402:419:436:453:472|) 0)
                               (<= |K:401:402:419:436:453:472| 0)))
                     (= (+ |main__t':378:404:421:438:455:474|
                             (- |K:401:402:419:436:453:472|) -9) 0))
               (or (not (<= (+ (- |K:401:402:419:436:453:472|) 1) 0))
                     (= (+ |main__t':378:404:421:438:455:474|
                             (- |K:401:402:419:436:453:472|) -9) 0))
               (or (not (and (<= (- |K:401:402:419:436:453:472|) 0)
                               (<= |K:401:402:419:436:453:472| 0)))
                     (= (+ |__tmp_3137_1':376:405:422:439:456:475|
                             (- |havoc:27:164:418:435:452:471|)) 0))
               (or (not (<= (+ (- |K:401:402:419:436:453:472|) 1) 0))
                     (= |__tmp_3137_1':376:405:422:439:456:475| 0))
               (or (not (and (<= (- |K:401:402:419:436:453:472|) 0)
                               (<= |K:401:402:419:436:453:472| 0)))
                     (= (+ |__tmp_3137_0':377:406:423:440:457:476|
                             (- |K:401:402:419:436:453:472|) -8) 0))
               (or (not (<= (+ (- |K:401:402:419:436:453:472|) 1) 0))
                     (= (+ |__tmp_3137_0':377:406:423:440:457:476|
                             (- |K:401:402:419:436:453:472|) -8) 0))
               (or (not (and (<= (- |K:401:402:419:436:453:472|) 0)
                               (<= |K:401:402:419:436:453:472| 0)))
                     (= (+ (- __VERIFIER_assert__cond___49)
                             |__VERIFIER_assert__cond___49':382:407:424:441:458:477|) 0))
               (or (not (<= (+ (- |K:401:402:419:436:453:472|) 1) 0))
                     (= (+ |__VERIFIER_assert__cond___49':382:407:424:441:458:477|
                             -1) 0))
               (or (not (and (<= (- |K:401:402:419:436:453:472|) 0)
                               (<= |K:401:402:419:436:453:472| 0)))
                     (= (+ |main____CPAchecker_TMP_0___7':379:408:425:442:459:478|
                             (- |havoc:27:164:418:435:452:471|)) 0))
               (or (not (<= (+ (- |K:401:402:419:436:453:472|) 1) 0))
                     (= |main____CPAchecker_TMP_0___7':379:408:425:442:459:478| 0))
               (or (not (and (<= (- |K:401:402:419:436:453:472|) 0)
                               (<= |K:401:402:419:436:453:472| 0)))
                     (= (+ (- __VERIFIER_assert__cond___50)
                             |__VERIFIER_assert__cond___50':383:409:426:443:460:479|) 0))
               (or (not (<= (+ (- |K:401:402:419:436:453:472|) 1) 0))
                     (= (+ |__VERIFIER_assert__cond___50':383:409:426:443:460:479|
                             -1) 0))
               (or (not (and (<= (- |K:401:402:419:436:453:472|) 0)
                               (<= |K:401:402:419:436:453:472| 0)))
                     (= (+ (- main____CPAchecker_TMP_0___8)
                             |main____CPAchecker_TMP_0___8':381:410:427:444:461:480|) 0))
               (or (not (<= (+ (- |K:401:402:419:436:453:472|) 1) 0))
                     (= |main____CPAchecker_TMP_0___8':381:410:427:444:461:480| 0))
               (or (not (and (<= (- |K:401:402:419:436:453:472|) 0)
                               (<= |K:401:402:419:436:453:472| 0)))
                     (<= (+ (* 2
                                 |main____CPAchecker_TMP_1___7':380:403:420:437:454:473|)
                              (- (* |K:401:402:419:436:453:472|
                                      |K:401:402:419:436:453:472|))
                              (* -13 |K:401:402:419:436:453:472|) -16) 0))
               (or (not (<= (+ (- |K:401:402:419:436:453:472|) 1) 0))
                     (<= (+ (* 2
                                 |main____CPAchecker_TMP_1___7':380:403:420:437:454:473|)
                              (- (* |K:401:402:419:436:453:472|
                                      |K:401:402:419:436:453:472|))
                              (* -13 |K:401:402:419:436:453:472|) -16) 0))
               (or (and (= |K:401:402:419:436:453:472| 0)
                          (= (+ __VERIFIER_assert__cond___50
                                  (- |__VERIFIER_assert__cond___50':383:409:426:443:460:479|)) 0)
                          (= (+ __VERIFIER_assert__cond___49
                                  (- |__VERIFIER_assert__cond___49':382:407:424:441:458:477|)) 0)
                          (= (+ main____CPAchecker_TMP_0___8
                                  (- |main____CPAchecker_TMP_0___8':381:410:427:444:461:480|)) 0)
                          (= (+ (- |main____CPAchecker_TMP_1___7':380:403:420:437:454:473|)
                                  8) 0)
                          (= (+ (- |main____CPAchecker_TMP_0___7':379:408:425:442:459:478|)
                                  |havoc:27:164:418:435:452:471|) 0)
                          (= (+ (- |main__t':378:404:421:438:455:474|) 9) 0)
                          (= (+ (- |__tmp_3137_0':377:406:423:440:457:476|) 8) 0)
                          (= (+ (- |__tmp_3137_1':376:405:422:439:456:475|)
                                  |havoc:27:164:418:435:452:471|) 0))
                     (and (<= (+ (- |K:401:402:419:436:453:472|) 1) 0)
                            (= |havoc:27:164:418:435:452:471| 0)
                            (= |havoc:27:164:418:435:452:471| 0)
                            (<= (+ (- havoc) 11) 0)
                            (= (+ (- |main__t':378:404:421:438:455:474|)
                                    |main____CPAchecker_TMP_1___7':380:403:420:437:454:473|
                                    2) 0)
                            (= (+ |__tmp_3137_0':377:406:423:440:457:476|
                                    (- |main__t':378:404:421:438:455:474|) 1) 0)
                            (= (+ |__VERIFIER_assert__cond___50':383:409:426:443:460:479|
                                    -1) 0)
                            (= (+ |__VERIFIER_assert__cond___49':382:407:424:441:458:477|
                                    -1) 0)
                            (= |main____CPAchecker_TMP_0___7':379:408:425:442:459:478| 0)
                            (= |main____CPAchecker_TMP_0___8':381:410:427:444:461:480| 0)
                            (= |__tmp_3137_1':376:405:422:439:456:475| 0)
                            (<= (+ |main__t':378:404:421:438:455:474|
                                     (- havoc) 1) 0)
                            (<= (+ (- |main__t':378:404:421:438:455:474|) 3) 0)))
               (<= (- |K:401:402:419:436:453:472|) 0)
               (< (- |main____CPAchecker_TMP_1___7':380:403:420:437:454:473|) 0)
               (= |__tmp_3137_1':376:405:422:439:456:475| 0)
               (< (- |__tmp_3137_0':377:406:423:440:457:476|) 0)
               (= |main____CPAchecker_TMP_0___7':379:408:425:442:459:478| 0)
               (< (- |main__t':378:404:421:438:455:474|) 0)
               (< (+ (- havoc) 1) 0)
               (= (+ |__tmp_3137_0':377:406:423:440:457:476|
                       (- |main__t':378:404:421:438:455:474|) 1) 0)
               (= |__tmp_3137_1':376:405:422:439:456:475| 0)
               (= |main____CPAchecker_TMP_0___7':379:408:425:442:459:478| 0)
               (not (= (+ |main__t':378:404:421:438:455:474| (- havoc) 1) 0))
               (= |havoc:34:165:375:462:481| 0)
               (not (= (ite (<= (- |main__t':378:404:421:438:455:474|) 0) 1 0) 0))
               (= (ite (<= (+ |main__t':378:404:421:438:455:474| (- havoc) 1) 0)
                       1 0) 0)))
(check-sat)
